p edge 25 37
e 1 8
e 2 3
e 2 5
e 2 6
e 2 8
e 2 9
e 2 15
e 2 23
e 3 23
e 4 9
e 4 22
e 5 11
e 6 15
e 6 20
e 6 25
e 7 14
e 8 10
e 8 19
e 8 21
e 9 18
e 10 14
e 10 17
e 10 24
e 12 13
e 12 14
e 12 17
e 12 24
e 13 19
e 15 17
e 15 23
e 16 18
e 16 19
e 16 21
e 16 24
e 17 18
e 19 20
e 19 23
